100
21 4
6 0
39 1
36 4
35 0
42 4
6 3
20 4
5 2
0 1
36 3
43 4
13 2
42 3
12 4
33 0
29 4
27 4
35 4
12 3
29 0
9 0
2 3
6 4
18 2
11 4
25 0
9 3
11 0
7 2
40 0
8 0
1 4
36 2
4 2
13 4
13 0
24 3
38 1
4 4
30 0
40 1
39 0
37 4
10 0
23 1
3 4
0 4
14 4
13 1
35 1
3 0
17 0
44 4
38 4
11 3
25 4
37 0
28 2
12 0
38 3
34 4
23 4
44 3
34 1
14 0
2 4
36 0
0 3
0 2
40 3
5 4
41 0
26 0
8 1
18 4
28 4
34 0
30 1
18 3
6 1
36 1
27 0
18 0
15 0
2 1
31 0
9 4
24 2
7 3
15 4
0 0
39 4
22 0
31 4
19 3
20 1
42 0
3 3
24 1

